unsat
(:binary-propagations  26
 :conflicts            1
 :final-checks         1
 :max-generation       1
 :max-memory           23.54
 :memory               20.98
 :mk-bool-var          513
 :mk-clause            141
 :mk-clause-binary     650
 :num-allocs           9509089
 :num-checks           1
 :propagations         26
 :quant-instantiations 110
 :restarts             1
 :rlimit-count         131817
 :time                 0.03)
